20190508 300 0 0 0
20180613 350 0 0 0
20170608 350 2000 0 0
20160617 300 2000 0 0
20150604 300 0 0 0
20140508 300 2000 0 0
20130625 300 0 0 0
20120619 350 3000 0 0
20110527 350 3000 0 0
20101207 350 5000 0 0
20090603 350 0 0 0
20080529 350 0 0 0
20070606 300 0 0 0
